22
glycine + 4 waters (TIP3P charges)
C 0.000000 0.000000 0.000000
C 1.500000 0.000000 0.000000
O 2.200000 1.000000 0.000000
O 2.000000 -1.100000 0.000000
N -1.200000 0.500000 0.000000
H -1.800000 -0.200000 0.000000
H 0.500000 -0.900000 0.000000
H 0.500000 0.900000 0.000000
H 1.500000 0.900000 0.000000
H 1.500000 -0.900000 0.000000
O 5.000000 0.000000 0.000000 -0.834000
H 5.800000 0.600000 0.000000 0.417000
H 5.800000 -0.600000 0.000000 0.417000
O 5.000000 3.000000 0.000000 -0.834000
H 5.800000 3.600000 0.000000 0.417000
H 5.800000 2.400000 0.000000 0.417000
O 8.000000 0.000000 0.000000 -0.834000
H 8.800000 0.600000 0.000000 0.417000
H 8.800000 -0.600000 0.000000 0.417000
O 8.000000 3.000000 0.000000 -0.834000
H 8.800000 3.600000 0.000000 0.417000
H 8.800000 2.400000 0.000000 0.417000
