22
glycine + 4 waters (frame 10/10, MM perturbation)
C 0.000000 0.000000 0.000000
C 1.500000 0.000000 0.000000
O 2.200000 1.000000 0.000000
O 2.000000 -1.100000 0.000000
N -1.200000 0.500000 0.000000
H -1.800000 -0.200000 0.000000
H 0.500000 -0.900000 0.000000
H 0.500000 0.900000 0.000000
H 1.500000 0.900000 0.000000
H 1.500000 -0.900000 0.000000
O 5.745076 -0.701511 -0.187558
H 6.415997 -0.091784 -0.111825
H 6.354441 -1.177911 -0.105721
O 5.617003 2.535411 -0.174857
H 6.546163 3.143996 -0.255670
H 6.623172 1.839951 -0.273861
O 8.777229 -0.681067 -0.212705
H 9.450573 -0.107793 -0.128429
H 9.359651 -1.215656 -0.098516
O 8.588057 2.510634 -0.150467
H 9.509673 3.154966 -0.236520
H 9.612688 1.876582 -0.277557
