22
glycine + 4 waters (frame 2/10, MM perturbation)
C 0.000000 0.000000 0.000000
C 1.500000 0.000000 0.000000
O 2.200000 1.000000 0.000000
O 2.000000 -1.100000 0.000000
N -1.200000 0.500000 0.000000
H -1.800000 -0.200000 0.000000
H 0.500000 -0.900000 0.000000
H 0.500000 0.900000 0.000000
H 1.500000 0.900000 0.000000
H 1.500000 -0.900000 0.000000
O 5.112622 0.008105 0.000000
H 5.913639 0.593758 0.008415
H 5.902117 -0.614850 0.009093
O 5.088648 2.990195 0.001411
H 5.885616 3.604255 -0.007568
H 5.895809 2.414403 -0.009589
O 8.109855 0.011309 -0.002794
H 8.914840 0.597817 0.006570
H 8.906182 -0.613667 0.009894
O 8.091840 2.987414 0.004121
H 8.885000 3.600066 -0.005440
H 8.891951 2.412658 -0.010000
