22
glycine + 4 waters (frame 3/10, MM perturbation)
C 0.000000 0.000000 0.000000
C 1.500000 0.000000 0.000000
O 2.200000 1.000000 0.000000
O 2.000000 -1.100000 0.000000
N -1.200000 0.500000 0.000000
H -1.800000 -0.200000 0.000000
H 0.500000 -0.900000 0.000000
H 0.500000 0.900000 0.000000
H 1.500000 0.900000 0.000000
H 1.500000 -0.900000 0.000000
O 5.180488 0.116073 0.028168
H 5.957442 0.698858 0.044998
H 5.930505 -0.491052 0.046354
O 5.124441 3.137067 0.030991
H 5.944826 3.757363 0.013032
H 5.972918 2.551175 0.008990
O 8.182890 0.124193 0.022580
H 8.965572 0.701224 0.041308
H 8.936888 -0.496615 0.047955
O 8.123209 3.128690 0.036411
H 8.937112 3.753873 0.017288
H 8.965814 2.555781 0.008168
