22
glycine + 4 waters (frame 4/10, MM perturbation)
C 0.000000 0.000000 0.000000
C 1.500000 0.000000 0.000000
O 2.200000 1.000000 0.000000
O 2.000000 -1.100000 0.000000
N -1.200000 0.500000 0.000000
H -1.800000 -0.200000 0.000000
H 0.500000 -0.900000 0.000000
H 0.500000 0.900000 0.000000
H 1.500000 0.900000 0.000000
H 1.500000 -0.900000 0.000000
O 5.058445 0.250893 0.074613
H 5.818038 0.866028 0.099858
H 5.808943 -0.291793 0.101892
O 5.039521 3.338650 0.078847
H 5.881659 3.929368 0.051909
H 5.896616 2.688895 0.045846
O 8.070640 0.254441 0.066231
H 8.827614 0.857684 0.094323
H 8.807095 -0.304359 0.104294
O 8.027949 3.333416 0.086977
H 8.871002 3.936277 0.058293
H 8.896672 2.701596 0.044614
