22
glycine + 4 waters (frame 5/10, MM perturbation)
C 0.000000 0.000000 0.000000
C 1.500000 0.000000 0.000000
O 2.200000 1.000000 0.000000
O 2.000000 -1.100000 0.000000
N -1.200000 0.500000 0.000000
H -1.800000 -0.200000 0.000000
H 0.500000 -0.900000 0.000000
H 0.500000 0.900000 0.000000
H 1.500000 0.900000 0.000000
H 1.500000 -0.900000 0.000000
O 4.754592 0.307192 0.119343
H 5.542465 0.963430 0.153001
H 5.583235 -0.195980 0.155715
O 4.839419 3.391644 0.124987
H 5.659361 3.937680 0.089071
H 5.624727 2.691742 0.080986
O 7.767359 0.296066 0.108166
H 8.540001 0.946676 0.145622
H 8.567806 -0.202959 0.158917
O 7.825210 3.400857 0.135827
H 8.659436 3.954614 0.097582
H 8.639017 2.700829 0.079343
