22
glycine + 4 waters (frame 6/10, MM perturbation)
C 0.000000 0.000000 0.000000
C 1.500000 0.000000 0.000000
O 2.200000 1.000000 0.000000
O 2.000000 -1.100000 0.000000
N -1.200000 0.500000 0.000000
H -1.800000 -0.200000 0.000000
H 0.500000 -0.900000 0.000000
H 0.500000 0.900000 0.000000
H 1.500000 0.900000 0.000000
H 1.500000 -0.900000 0.000000
O 4.458234 0.192285 0.139078
H 5.309198 0.843023 0.181151
H 5.379428 -0.372447 0.184542
O 4.604356 3.160098 0.146134
H 5.361063 3.702675 0.101237
H 5.289352 2.508080 0.091131
O 7.455154 0.171342 0.125107
H 8.289911 0.834299 0.171927
H 8.361666 -0.360931 0.188545
O 7.604449 3.181265 0.159684
H 8.378925 3.714033 0.111877
H 8.308561 2.499186 0.089078
