22
glycine + 4 waters (frame 7/10, MM perturbation)
C 0.000000 0.000000 0.000000
C 1.500000 0.000000 0.000000
O 2.200000 1.000000 0.000000
O 2.000000 -1.100000 0.000000
N -1.200000 0.500000 0.000000
H -1.800000 -0.200000 0.000000
H 0.500000 -0.900000 0.000000
H 0.500000 0.900000 0.000000
H 1.500000 0.900000 0.000000
H 1.500000 -0.900000 0.000000
O 4.411037 -0.118797 0.115702
H 5.295313 0.462639 0.166190
H 5.325227 -0.818307 0.170260
O 4.473275 2.712786 0.124169
H 5.187223 3.319271 0.070294
H 5.146185 2.195186 0.058166
O 7.387893 -0.129265 0.098937
H 8.273999 0.476458 0.155121
H 8.325339 -0.792906 0.175063
O 7.494710 2.726416 0.140429
H 8.210273 3.308599 0.083061
H 8.149659 2.170023 0.055702
