22
glycine + 4 waters (frame 8/10, MM perturbation)
C 0.000000 0.000000 0.000000
C 1.500000 0.000000 0.000000
O 2.200000 1.000000 0.000000
O 2.000000 -1.100000 0.000000
N -1.200000 0.500000 0.000000
H -1.800000 -0.200000 0.000000
H 0.500000 -0.900000 0.000000
H 0.500000 0.900000 0.000000
H 1.500000 0.900000 0.000000
H 1.500000 -0.900000 0.000000
O 4.718984 -0.527058 0.043661
H 5.553883 -0.021495 0.102564
H 5.493272 -1.301886 0.107312
O 4.592878 2.305680 0.053540
H 5.345001 2.994247 -0.009315
H 5.393660 1.882387 -0.023463
O 7.694118 -0.510936 0.024102
H 8.554014 0.008140 0.089651
H 8.518280 -1.285985 0.112917
O 7.619770 2.293228 0.072510
H 8.349053 2.964890 0.005580
H 8.371146 1.863115 -0.026338
