22
glycine + 4 waters (frame 9/10, MM perturbation)
C 0.000000 0.000000 0.000000
C 1.500000 0.000000 0.000000
O 2.200000 1.000000 0.000000
O 2.000000 -1.100000 0.000000
N -1.200000 0.500000 0.000000
H -1.800000 -0.200000 0.000000
H 0.500000 -0.900000 0.000000
H 0.500000 0.900000 0.000000
H 1.500000 0.900000 0.000000
H 1.500000 -0.900000 0.000000
O 5.257642 -0.805306 -0.066153
H 5.988373 -0.297182 0.001165
H 5.873636 -1.488535 0.006591
O 5.018920 2.212685 -0.054863
H 5.874530 2.913416 -0.126697
H 5.989339 1.721047 -0.142867
O 8.257791 -0.771438 -0.088506
H 9.016953 -0.279009 -0.013594
H 8.904370 -1.502765 0.012996
O 8.023551 2.179134 -0.033183
H 8.848800 2.891392 -0.109675
H 8.956904 1.730798 -0.146152
